; benchmark generated from python API
(set-info :status unknown)
(declare-fun strlen_85_64 () (_ BitVec 64))
(declare-fun args_1_8 () (_ BitVec 8))
(declare-fun strlen_83_64 () (_ BitVec 64))
(declare-fun strncmp_ret_84_32 () (_ BitVec 32))
(declare-fun strncmp_ret_86_32 () (_ BitVec 32))
(declare-fun filesize_file_0_/proc/self/loginuid_88_64 () (_ BitVec 64))
(declare-fun syscall_stub_ioctl_94_32 () (_ BitVec 32))
(declare-fun syscall_stub_newfstatat_119_64 () (_ BitVec 64))
(declare-fun syscall_stub_readlink_158_64 () (_ BitVec 64))
(declare-fun strlen_842_64 () (_ BitVec 64))
(declare-fun mem_7fffffffffef420_168_64 () (_ BitVec 64))
(declare-fun syscall_stub_newfstatat_187_64 () (_ BitVec 64))
(declare-fun mem_7fffffffffef038_272_64 () (_ BitVec 64))
(declare-fun mem_7fffffffffeefa8_273_64 () (_ BitVec 64))
(declare-fun mem_7fffffffffeefa0_293_64 () (_ BitVec 64))
(declare-fun mem_7fffffffffef030_294_64 () (_ BitVec 64))
(declare-fun mem_7fffffffffef048_341_32 () (_ BitVec 32))
(declare-fun mem_7fffffffffeefc8_390_64 () (_ BitVec 64))
(declare-fun mem_7fffffffffef058_391_64 () (_ BitVec 64))
(declare-fun access_2116_32 () (_ BitVec 32))
(declare-fun access_3240_32 () (_ BitVec 32))
(declare-fun mem_2c_5075_264 () (_ BitVec 264))
(declare-fun strlen_5076_64 () (_ BitVec 64))
(declare-fun strlen_8049_64 () (_ BitVec 64))
(declare-fun strlen_9893_64 () (_ BitVec 64))
(declare-fun mem_7fffffffffef740_6020_248 () (_ BitVec 248))
(assert
 (let ((?x751 (bvadd (_ bv576460752303357826 64) strlen_85_64)))
 (let (($x69 (= (_ bv0 8) args_1_8)))
 (let ((?x46 (ite $x69 (_ bv576460752303357826 64) (_ bv576460752303357827 64))))
 (= ?x46 ?x751)))))
(assert
 (let ((?x101 (bvadd (_ bv576460752303357826 64) strlen_83_64)))
 (let (($x69 (= (_ bv0 8) args_1_8)))
 (let ((?x46 (ite $x69 (_ bv576460752303357826 64) (_ bv576460752303357827 64))))
 (= ?x46 ?x101)))))
(assert
 (let (($x104 (bvule (_ bv2 64) strlen_83_64)))
 (let (($x48 (= (_ bv2 64) strlen_83_64)))
 (let (($x122 (or $x48 $x104)))
 (let (($x123 (not $x122)))
 (let (($x57 (= (_ bv45 8) args_1_8)))
 (let (($x121 (not $x57)))
 (or $x121 $x123))))))))
(assert
 (= (_ bv1 32) strncmp_ret_84_32))
(assert
 (= (_ bv1 32) strncmp_ret_86_32))
(assert
 true)
(assert
 (let ((?x1236 ((_ extract 3 0) filesize_file_0_/proc/self/loginuid_88_64)))
 (let (($x1210 (bvsge (_ bv0 64) filesize_file_0_/proc/self/loginuid_88_64)))
 (let ((?x99 (ite $x1210 (_ bv0 4) ?x1236)))
 (let (($x1110 (bvule ?x99 (_ bv12 4))))
 (let (($x119703 (not $x1110)))
 (let ((?x1214 ((_ extract 63 63) filesize_file_0_/proc/self/loginuid_88_64)))
 (let (($x116245 (= (_ bv1 1) ?x1214)))
 (let (($x119835 (not $x116245)))
 (let ((?x1229 ((_ extract 63 4) filesize_file_0_/proc/self/loginuid_88_64)))
 (let (($x523 (= (_ bv0 60) ?x1229)))
 (let (($x516 (or $x1210 $x523)))
 (let (($x119942 (not $x516)))
 (let (($x119586 (or $x119942 $x119835 $x1210 $x119703)))
 (let (($x116912 (not $x119586)))
 (let (($x116860 (= (_ bv0 64) filesize_file_0_/proc/self/loginuid_88_64)))
 (let (($x117248 (or $x116860 $x1210)))
 (let (($x119482 (not $x117248)))
 (let (($x47155 (or $x119942 $x119703 $x119482)))
 (let (($x118344 (not $x47155)))
 (or $x118344 $x116912)))))))))))))))))))))
(assert
 (let (($x1210 (bvsge (_ bv0 64) filesize_file_0_/proc/self/loginuid_88_64)))
 (let ((?x1217 (ite $x1210 (_ bv0 64) filesize_file_0_/proc/self/loginuid_88_64)))
 (let ((?x1236 ((_ extract 3 0) filesize_file_0_/proc/self/loginuid_88_64)))
 (let ((?x99 (ite $x1210 (_ bv0 4) ?x1236)))
 (let (($x1110 (bvule ?x99 (_ bv12 4))))
 (let ((?x1229 ((_ extract 63 4) filesize_file_0_/proc/self/loginuid_88_64)))
 (let (($x523 (= (_ bv0 60) ?x1229)))
 (let (($x516 (or $x1210 $x523)))
 (let (($x975 (and $x516 $x1110)))
 (let ((?x1169 (ite $x975 ?x1217 (_ bv12 64))))
 (bvule ?x1169 (_ bv18446744073709547520 64)))))))))))))
(assert
 (let ((?x48102 ((_ extract 31 31) syscall_stub_ioctl_94_32)))
 (= (_ bv0 1) ?x48102)))
(assert
 (let (($x3051 (= (_ bv0 32) syscall_stub_ioctl_94_32)))
 (not $x3051)))
(assert
 (let ((?x52872 ((_ extract 31 0) syscall_stub_newfstatat_119_64)))
 (bvule ?x52872 (_ bv4294963200 32))))
(assert
 (= (_ bv13 64) syscall_stub_readlink_158_64))
(assert
 (let ((?x441255 (bvadd (_ bv576460752303354917 64) strlen_842_64)))
 (let ((?x119659 ((_ extract 63 56) mem_7fffffffffef420_168_64)))
 (let (($x441241 (= (_ bv0 8) ?x119659)))
 (let ((?x114108 (ite $x441241 (_ bv576460752303354919 64) (_ bv576460752303354920 64))))
 (let ((?x113788 ((_ extract 55 48) mem_7fffffffffef420_168_64)))
 (let (($x441239 (= (_ bv0 8) ?x113788)))
 (let ((?x40247 (ite $x441239 (_ bv576460752303354918 64) ?x114108)))
 (let ((?x68316 ((_ extract 47 40) mem_7fffffffffef420_168_64)))
 (let (($x441237 (= (_ bv0 8) ?x68316)))
 (let ((?x3236 (ite $x441237 (_ bv576460752303354917 64) ?x40247)))
 (= ?x3236 ?x441255))))))))))))
(assert
 (let ((?x46334 ((_ extract 7 0) mem_7fffffffffef420_168_64)))
 (= (_ bv47 8) ?x46334)))
(assert
 (let ((?x441444 (bvadd (_ bv1 64) strlen_842_64)))
 (let ((?x442010 ((_ extract 63 3) ?x441444)))
 (= (_ bv0 61) ?x442010))))
(assert
 (let ((?x441926 ((_ extract 2 0) strlen_842_64)))
 (let ((?x441872 (bvadd (_ bv1 3) ?x441926)))
 (bvule ?x441872 (_ bv4 3)))))
(assert
 (let ((?x441444 (bvadd (_ bv1 64) strlen_842_64)))
 (let (($x441412 (bvule (_ bv31 64) strlen_842_64)))
 (let (($x441420 (bvule strlen_842_64 (_ bv18446744073709551614 64))))
 (let (($x441918 (and $x441420 $x441412)))
 (let ((?x442099 (ite $x441918 (_ bv32 64) ?x441444)))
 (bvule (_ bv1 64) ?x442099)))))))
(assert
 (let (($x441412 (bvule (_ bv31 64) strlen_842_64)))
 (let (($x441584 (not $x441412)))
 (let (($x441420 (bvule strlen_842_64 (_ bv18446744073709551614 64))))
 (let (($x441580 (not $x441420)))
 (or $x441580 $x441584))))))
(assert
 (let ((?x118302 ((_ extract 31 0) syscall_stub_newfstatat_187_64)))
 (bvule ?x118302 (_ bv4294963200 32))))
(assert
 (= mem_7fffffffffeefa8_273_64 mem_7fffffffffef038_272_64))
(assert
 (= mem_7fffffffffef030_294_64 mem_7fffffffffeefa0_293_64))
(assert
 (let ((?x276820 ((_ extract 15 12) mem_7fffffffffef048_341_32)))
 (= (_ bv2 4) ?x276820)))
(assert
 (= mem_7fffffffffef058_391_64 mem_7fffffffffeefc8_390_64))
(assert
 (= (_ bv4294967295 32) access_2116_32))
(assert
 (= (_ bv0 32) access_3240_32))
(assert
 (let ((?x1267633 ((_ extract 23 16) mem_2c_5075_264)))
 (let (($x1267632 (= (_ bv0 8) ?x1267633)))
 (not $x1267632))))
(assert
 (let ((?x1267636 ((_ extract 15 8) mem_2c_5075_264)))
 (= (_ bv0 8) ?x1267636)))
(assert
 (let ((?x1267631 ((_ extract 31 24) mem_2c_5075_264)))
 (let (($x1267630 (= (_ bv0 8) ?x1267631)))
 (not $x1267630))))
(assert
 (let ((?x1267629 ((_ extract 39 32) mem_2c_5075_264)))
 (let (($x1267628 (= (_ bv0 8) ?x1267629)))
 (not $x1267628))))
(assert
 (let ((?x1267627 ((_ extract 47 40) mem_2c_5075_264)))
 (let (($x1267626 (= (_ bv0 8) ?x1267627)))
 (not $x1267626))))
(assert
 (let ((?x1267624 ((_ extract 55 48) mem_2c_5075_264)))
 (let (($x1267623 (= (_ bv0 8) ?x1267624)))
 (not $x1267623))))
(assert
 (let ((?x1267622 ((_ extract 63 56) mem_2c_5075_264)))
 (let (($x1267621 (= (_ bv0 8) ?x1267622)))
 (not $x1267621))))
(assert
 (let ((?x1267620 ((_ extract 71 64) mem_2c_5075_264)))
 (let (($x1267619 (= (_ bv0 8) ?x1267620)))
 (not $x1267619))))
(assert
 (let ((?x1267618 ((_ extract 79 72) mem_2c_5075_264)))
 (let (($x1267617 (= (_ bv0 8) ?x1267618)))
 (not $x1267617))))
(assert
 (let ((?x1267616 ((_ extract 87 80) mem_2c_5075_264)))
 (let (($x1267614 (= (_ bv0 8) ?x1267616)))
 (not $x1267614))))
(assert
 (let ((?x1267613 ((_ extract 95 88) mem_2c_5075_264)))
 (let (($x1267612 (= (_ bv0 8) ?x1267613)))
 (not $x1267612))))
(assert
 (let ((?x1267611 ((_ extract 103 96) mem_2c_5075_264)))
 (let (($x1267610 (= (_ bv0 8) ?x1267611)))
 (not $x1267610))))
(assert
 (let ((?x1267609 ((_ extract 111 104) mem_2c_5075_264)))
 (let (($x1267608 (= (_ bv0 8) ?x1267609)))
 (not $x1267608))))
(assert
 (let ((?x1267607 ((_ extract 119 112) mem_2c_5075_264)))
 (let (($x1267606 (= (_ bv0 8) ?x1267607)))
 (not $x1267606))))
(assert
 (let ((?x1267604 ((_ extract 127 120) mem_2c_5075_264)))
 (let (($x1267603 (= (_ bv0 8) ?x1267604)))
 (not $x1267603))))
(assert
 (let ((?x1267602 ((_ extract 135 128) mem_2c_5075_264)))
 (let (($x1267601 (= (_ bv0 8) ?x1267602)))
 (not $x1267601))))
(assert
 (let ((?x1267600 ((_ extract 143 136) mem_2c_5075_264)))
 (let (($x1267599 (= (_ bv0 8) ?x1267600)))
 (not $x1267599))))
(assert
 (let ((?x1267598 ((_ extract 151 144) mem_2c_5075_264)))
 (let (($x1267597 (= (_ bv0 8) ?x1267598)))
 (not $x1267597))))
(assert
 (let ((?x1267596 ((_ extract 159 152) mem_2c_5075_264)))
 (let (($x1267594 (= (_ bv0 8) ?x1267596)))
 (not $x1267594))))
(assert
 (let ((?x1267593 ((_ extract 167 160) mem_2c_5075_264)))
 (let (($x1267592 (= (_ bv0 8) ?x1267593)))
 (not $x1267592))))
(assert
 (let ((?x1267591 ((_ extract 175 168) mem_2c_5075_264)))
 (let (($x1267590 (= (_ bv0 8) ?x1267591)))
 (not $x1267590))))
(assert
 (let ((?x1267589 ((_ extract 183 176) mem_2c_5075_264)))
 (let (($x1267588 (= (_ bv0 8) ?x1267589)))
 (not $x1267588))))
(assert
 (let ((?x1267587 ((_ extract 191 184) mem_2c_5075_264)))
 (let (($x1267586 (= (_ bv0 8) ?x1267587)))
 (not $x1267586))))
(assert
 (let ((?x1267584 ((_ extract 199 192) mem_2c_5075_264)))
 (let (($x1267583 (= (_ bv0 8) ?x1267584)))
 (not $x1267583))))
(assert
 (let ((?x1267582 ((_ extract 207 200) mem_2c_5075_264)))
 (let (($x1267581 (= (_ bv0 8) ?x1267582)))
 (not $x1267581))))
(assert
 (let ((?x1267580 ((_ extract 215 208) mem_2c_5075_264)))
 (let (($x1267579 (= (_ bv0 8) ?x1267580)))
 (not $x1267579))))
(assert
 (let ((?x1267578 ((_ extract 223 216) mem_2c_5075_264)))
 (let (($x1267577 (= (_ bv0 8) ?x1267578)))
 (not $x1267577))))
(assert
 (let ((?x1267576 ((_ extract 231 224) mem_2c_5075_264)))
 (let (($x1267574 (= (_ bv0 8) ?x1267576)))
 (not $x1267574))))
(assert
 (let ((?x1267573 ((_ extract 239 232) mem_2c_5075_264)))
 (let (($x1267572 (= (_ bv0 8) ?x1267573)))
 (not $x1267572))))
(assert
 (let ((?x1267571 ((_ extract 247 240) mem_2c_5075_264)))
 (let (($x1267570 (= (_ bv0 8) ?x1267571)))
 (not $x1267570))))
(assert
 (let ((?x1267569 ((_ extract 255 248) mem_2c_5075_264)))
 (let (($x1267568 (= (_ bv0 8) ?x1267569)))
 (not $x1267568))))
(assert
 (let ((?x1267566 ((_ extract 263 256) mem_2c_5075_264)))
 (let (($x1267567 (= (_ bv0 8) ?x1267566)))
 (not $x1267567))))
(assert
 (= (_ bv31 64) strlen_5076_64))
(assert
 (= (_ bv31 64) strlen_8049_64))
(assert
 (let ((?x525307 ((_ extract 7 0) mem_7fffffffffef740_6020_248)))
 (let ((?x1342849 ((_ extract 15 0) mem_7fffffffffef740_6020_248)))
 (let ((?x1342885 ((_ extract 23 0) mem_7fffffffffef740_6020_248)))
 (let ((?x1342594 ((_ extract 31 0) mem_7fffffffffef740_6020_248)))
 (let ((?x1342804 ((_ extract 39 0) mem_7fffffffffef740_6020_248)))
 (let ((?x1342800 ((_ extract 47 0) mem_7fffffffffef740_6020_248)))
 (let ((?x1342914 ((_ extract 55 0) mem_7fffffffffef740_6020_248)))
 (let ((?x1342900 ((_ extract 63 0) mem_7fffffffffef740_6020_248)))
 (let ((?x1342958 ((_ extract 71 0) mem_7fffffffffef740_6020_248)))
 (let ((?x1342921 ((_ extract 79 0) mem_7fffffffffef740_6020_248)))
 (let ((?x1342868 ((_ extract 87 0) mem_7fffffffffef740_6020_248)))
 (let ((?x1343042 ((_ extract 95 0) mem_7fffffffffef740_6020_248)))
 (let ((?x1342976 ((_ extract 103 0) mem_7fffffffffef740_6020_248)))
 (let ((?x1342823 ((_ extract 111 0) mem_7fffffffffef740_6020_248)))
 (let ((?x1342824 ((_ extract 119 0) mem_7fffffffffef740_6020_248)))
 (let ((?x1342870 ((_ extract 127 0) mem_7fffffffffef740_6020_248)))
 (let ((?x1342850 ((_ extract 135 0) mem_7fffffffffef740_6020_248)))
 (let ((?x1342832 ((_ extract 143 0) mem_7fffffffffef740_6020_248)))
 (let ((?x1342871 ((_ extract 151 0) mem_7fffffffffef740_6020_248)))
 (let ((?x525294 ((_ extract 159 0) mem_7fffffffffef740_6020_248)))
 (let ((?x512672 ((_ extract 167 0) mem_7fffffffffef740_6020_248)))
 (let ((?x1342889 ((_ extract 175 0) mem_7fffffffffef740_6020_248)))
 (let ((?x1342810 ((_ extract 183 0) mem_7fffffffffef740_6020_248)))
 (let ((?x1342749 ((_ extract 191 0) mem_7fffffffffef740_6020_248)))
 (let ((?x1342895 ((_ extract 199 0) mem_7fffffffffef740_6020_248)))
 (let ((?x1342694 ((_ extract 207 0) mem_7fffffffffef740_6020_248)))
 (let ((?x1342747 ((_ extract 215 0) mem_7fffffffffef740_6020_248)))
 (let ((?x1330335 ((_ extract 223 0) mem_7fffffffffef740_6020_248)))
 (let ((?x1342828 ((_ extract 231 0) mem_7fffffffffef740_6020_248)))
 (let ((?x1342661 ((_ extract 239 0) mem_7fffffffffef740_6020_248)))
 (let ((?x1330671 ((_ extract 263 16) mem_2c_5075_264)))
 (let (($x1330718 (= (_ bv1 64) strlen_5076_64)))
 (let ((?x1342722 (ite $x1330718 ?x1330671 mem_7fffffffffef740_6020_248)))
 (let ((?x1330955 ((_ extract 247 240) ?x1342722)))
 (let ((?x1342751 (concat ?x1330955 ?x1342661)))
 (let (($x1330961 (= (_ bv2 64) strlen_5076_64)))
 (let ((?x1342741 (ite $x1330961 ?x1330671 ?x1342751)))
 (let ((?x1342427 ((_ extract 247 232) ?x1342741)))
 (let ((?x1342368 (concat ?x1342427 ?x1342828)))
 (let (($x1330944 (= (_ bv3 64) strlen_5076_64)))
 (let ((?x1342669 (ite $x1330944 ?x1330671 ?x1342368)))
 (let ((?x1342593 ((_ extract 247 224) ?x1342669)))
 (let ((?x1342710 (concat ?x1342593 ?x1330335)))
 (let (($x1330956 (= (_ bv4 64) strlen_5076_64)))
 (let ((?x1342857 (ite $x1330956 ?x1330671 ?x1342710)))
 (let ((?x1342875 ((_ extract 247 216) ?x1342857)))
 (let ((?x1342698 (concat ?x1342875 ?x1342747)))
 (let (($x1288826 (= (_ bv5 64) strlen_5076_64)))
 (let ((?x1342762 (ite $x1288826 ?x1330671 ?x1342698)))
 (let ((?x1341209 ((_ extract 247 208) ?x1342762)))
 (let ((?x1342836 (concat ?x1341209 ?x1342694)))
 (let (($x1330952 (= (_ bv6 64) strlen_5076_64)))
 (let ((?x1342713 (ite $x1330952 ?x1330671 ?x1342836)))
 (let ((?x1342717 ((_ extract 247 200) ?x1342713)))
 (let ((?x1342820 (concat ?x1342717 ?x1342895)))
 (let (($x1330939 (= (_ bv7 64) strlen_5076_64)))
 (let ((?x1342760 (ite $x1330939 ?x1330671 ?x1342820)))
 (let ((?x644782 ((_ extract 247 192) ?x1342760)))
 (let ((?x1342783 (concat ?x644782 ?x1342749)))
 (let (($x1330746 (= (_ bv8 64) strlen_5076_64)))
 (let ((?x1342884 (ite $x1330746 ?x1330671 ?x1342783)))
 (let ((?x1342906 ((_ extract 247 184) ?x1342884)))
 (let ((?x1342880 (concat ?x1342906 ?x1342810)))
 (let (($x1330936 (= (_ bv9 64) strlen_5076_64)))
 (let ((?x511462 (ite $x1330936 ?x1330671 ?x1342880)))
 (let ((?x1342874 ((_ extract 247 176) ?x511462)))
 (let ((?x1342835 (concat ?x1342874 ?x1342889)))
 (let (($x1330946 (= (_ bv10 64) strlen_5076_64)))
 (let ((?x1342822 (ite $x1330946 ?x1330671 ?x1342835)))
 (let ((?x1342872 ((_ extract 247 168) ?x1342822)))
 (let ((?x734556 (concat ?x1342872 ?x512672)))
 (let (($x1330934 (= (_ bv11 64) strlen_5076_64)))
 (let ((?x1342770 (ite $x1330934 ?x1330671 ?x734556)))
 (let ((?x1342901 ((_ extract 247 160) ?x1342770)))
 (let ((?x1342791 (concat ?x1342901 ?x525294)))
 (let (($x1330943 (= (_ bv12 64) strlen_5076_64)))
 (let ((?x1342888 (ite $x1330943 ?x1330671 ?x1342791)))
 (let ((?x1342845 ((_ extract 247 152) ?x1342888)))
 (let ((?x1342877 (concat ?x1342845 ?x1342871)))
 (let (($x1289280 (= (_ bv13 64) strlen_5076_64)))
 (let ((?x1342774 (ite $x1289280 ?x1330671 ?x1342877)))
 (let ((?x1342841 ((_ extract 247 144) ?x1342774)))
 (let ((?x525333 (concat ?x1342841 ?x1342832)))
 (let (($x1330941 (= (_ bv14 64) strlen_5076_64)))
 (let ((?x1342602 (ite $x1330941 ?x1330671 ?x525333)))
 (let ((?x1342897 ((_ extract 247 136) ?x1342602)))
 (let ((?x1342721 (concat ?x1342897 ?x1342850)))
 (let (($x1330741 (= (_ bv15 64) strlen_5076_64)))
 (let ((?x1342802 (ite $x1330741 ?x1330671 ?x1342721)))
 (let ((?x1342787 ((_ extract 247 128) ?x1342802)))
 (let ((?x1342881 (concat ?x1342787 ?x1342870)))
 (let (($x1330938 (= (_ bv16 64) strlen_5076_64)))
 (let ((?x1330429 (ite $x1330938 ?x1330671 ?x1342881)))
 (let ((?x1342750 ((_ extract 247 120) ?x1330429)))
 (let ((?x1287420 (concat ?x1342750 ?x1342824)))
 (let (($x481079 (= (_ bv17 64) strlen_5076_64)))
 (let ((?x1342837 (ite $x481079 ?x1330671 ?x1287420)))
 (let ((?x1342873 ((_ extract 247 112) ?x1342837)))
 (let ((?x1342943 (concat ?x1342873 ?x1342823)))
 (let (($x1288959 (= (_ bv18 64) strlen_5076_64)))
 (let ((?x1342990 (ite $x1288959 ?x1330671 ?x1342943)))
 (let ((?x1342931 ((_ extract 247 104) ?x1342990)))
 (let ((?x1342974 (concat ?x1342931 ?x1342976)))
 (let (($x1330717 (= (_ bv19 64) strlen_5076_64)))
 (let ((?x1342920 (ite $x1330717 ?x1330671 ?x1342974)))
 (let ((?x1342944 ((_ extract 247 96) ?x1342920)))
 (let ((?x1342929 (concat ?x1342944 ?x1343042)))
 (let (($x1284186 (= (_ bv20 64) strlen_5076_64)))
 (let ((?x1343010 (ite $x1284186 ?x1330671 ?x1342929)))
 (let ((?x1342705 ((_ extract 247 88) ?x1343010)))
 (let ((?x1342937 (concat ?x1342705 ?x1342868)))
 (let (($x906167 (= (_ bv21 64) strlen_5076_64)))
 (let ((?x1343008 (ite $x906167 ?x1330671 ?x1342937)))
 (let ((?x1342769 ((_ extract 247 80) ?x1343008)))
 (let ((?x1342767 (concat ?x1342769 ?x1342921)))
 (let (($x1330931 (= (_ bv22 64) strlen_5076_64)))
 (let ((?x1342777 (ite $x1330931 ?x1330671 ?x1342767)))
 (let ((?x1342753 ((_ extract 247 72) ?x1342777)))
 (let ((?x1342938 (concat ?x1342753 ?x1342958)))
 (let (($x1330719 (= (_ bv23 64) strlen_5076_64)))
 (let ((?x1342930 (ite $x1330719 ?x1330671 ?x1342938)))
 (let ((?x1342813 ((_ extract 247 64) ?x1342930)))
 (let ((?x1342913 (concat ?x1342813 ?x1342900)))
 (let (($x1330928 (= (_ bv24 64) strlen_5076_64)))
 (let ((?x1342886 (ite $x1330928 ?x1330671 ?x1342913)))
 (let ((?x1342752 ((_ extract 247 56) ?x1342886)))
 (let ((?x1342890 (concat ?x1342752 ?x1342914)))
 (let (($x1289324 (= (_ bv25 64) strlen_5076_64)))
 (let ((?x1342146 (ite $x1289324 ?x1330671 ?x1342890)))
 (let ((?x1342909 ((_ extract 247 48) ?x1342146)))
 (let ((?x1342805 (concat ?x1342909 ?x1342800)))
 (let (($x1308324 (= (_ bv26 64) strlen_5076_64)))
 (let ((?x1342878 (ite $x1308324 ?x1330671 ?x1342805)))
 (let ((?x1342904 ((_ extract 247 40) ?x1342878)))
 (let ((?x1342840 (concat ?x1342904 ?x1342804)))
 (let (($x1330891 (= (_ bv27 64) strlen_5076_64)))
 (let ((?x1342779 (ite $x1330891 ?x1330671 ?x1342840)))
 (let ((?x1342907 ((_ extract 247 32) ?x1342779)))
 (let ((?x1342866 (concat ?x1342907 ?x1342594)))
 (let (($x1308505 (= (_ bv28 64) strlen_5076_64)))
 (let ((?x1342891 (ite $x1308505 ?x1330671 ?x1342866)))
 (let ((?x1342781 ((_ extract 247 24) ?x1342891)))
 (let ((?x1342808 (concat ?x1342781 ?x1342885)))
 (let (($x1289225 (= (_ bv29 64) strlen_5076_64)))
 (let ((?x1342784 (ite $x1289225 ?x1330671 ?x1342808)))
 (let ((?x1342652 ((_ extract 247 16) ?x1342784)))
 (let ((?x1342748 (concat ?x1342652 ?x1342849)))
 (let (($x1330885 (= (_ bv30 64) strlen_5076_64)))
 (let ((?x1342892 (ite $x1330885 ?x1330671 ?x1342748)))
 (let ((?x1342860 ((_ extract 247 8) ?x1342892)))
 (let ((?x1342855 (concat ?x1342860 ?x525307)))
 (let (($x1330870 (= (_ bv31 64) strlen_5076_64)))
 (let ((?x490286 (ite $x1330870 ?x1330671 ?x1342855)))
 (let ((?x1562370 ((_ extract 7 0) ?x490286)))
 (let (($x1561936 (= (_ bv0 8) ?x1562370)))
 (let ((?x1562311 (ite $x1561936 (_ bv576460752303355742 64) (_ bv576460752303355743 64))))
 (let ((?x1562605 ((_ extract 15 8) ?x490286)))
 (let (($x1561935 (= (_ bv0 8) ?x1562605)))
 (let ((?x1561913 (ite $x1561935 (_ bv576460752303355741 64) ?x1562311)))
 (let ((?x1561959 ((_ extract 23 16) ?x490286)))
 (let (($x1561845 (= (_ bv0 8) ?x1561959)))
 (let ((?x1562443 (ite $x1561845 (_ bv576460752303355740 64) ?x1561913)))
 (let ((?x1562430 ((_ extract 31 24) ?x490286)))
 (let (($x1561844 (= (_ bv0 8) ?x1562430)))
 (let ((?x1562098 (ite $x1561844 (_ bv576460752303355739 64) ?x1562443)))
 (let ((?x1561888 ((_ extract 39 32) ?x490286)))
 (let (($x1561839 (= (_ bv0 8) ?x1561888)))
 (let ((?x1561905 (ite $x1561839 (_ bv576460752303355738 64) ?x1562098)))
 (let ((?x1561943 ((_ extract 47 40) ?x490286)))
 (let (($x1561838 (= (_ bv0 8) ?x1561943)))
 (let ((?x1562039 (ite $x1561838 (_ bv576460752303355737 64) ?x1561905)))
 (let ((?x1561968 ((_ extract 55 48) ?x490286)))
 (let (($x1342950 (= (_ bv0 8) ?x1561968)))
 (let ((?x1562691 (ite $x1342950 (_ bv576460752303355736 64) ?x1562039)))
 (let ((?x1562667 ((_ extract 63 56) ?x490286)))
 (let (($x1342864 (= (_ bv0 8) ?x1562667)))
 (let ((?x1562447 (ite $x1342864 (_ bv576460752303355735 64) ?x1562691)))
 (let ((?x1562669 ((_ extract 71 64) ?x490286)))
 (let (($x1342853 (= (_ bv0 8) ?x1562669)))
 (let ((?x1562432 (ite $x1342853 (_ bv576460752303355734 64) ?x1562447)))
 (let ((?x1562431 ((_ extract 79 72) ?x490286)))
 (let (($x1342852 (= (_ bv0 8) ?x1562431)))
 (let ((?x1562445 (ite $x1342852 (_ bv576460752303355733 64) ?x1562432)))
 (let ((?x1561919 ((_ extract 87 80) ?x490286)))
 (let (($x1342843 (= (_ bv0 8) ?x1561919)))
 (let ((?x1561987 (ite $x1342843 (_ bv576460752303355732 64) ?x1562445)))
 (let ((?x1562321 ((_ extract 95 88) ?x490286)))
 (let (($x1342839 (= (_ bv0 8) ?x1562321)))
 (let ((?x1562399 (ite $x1342839 (_ bv576460752303355731 64) ?x1561987)))
 (let ((?x1561920 ((_ extract 103 96) ?x490286)))
 (let (($x1342838 (= (_ bv0 8) ?x1561920)))
 (let ((?x1561970 (ite $x1342838 (_ bv576460752303355730 64) ?x1562399)))
 (let ((?x1562324 ((_ extract 111 104) ?x490286)))
 (let (($x1342830 (= (_ bv0 8) ?x1562324)))
 (let ((?x1562600 (ite $x1342830 (_ bv576460752303355729 64) ?x1561970)))
 (let ((?x1562622 ((_ extract 119 112) ?x490286)))
 (let (($x1342829 (= (_ bv0 8) ?x1562622)))
 (let ((?x1562367 (ite $x1342829 (_ bv576460752303355728 64) ?x1562600)))
 (let ((?x1562068 ((_ extract 127 120) ?x490286)))
 (let (($x1342826 (= (_ bv0 8) ?x1562068)))
 (let ((?x1562348 (ite $x1342826 (_ bv576460752303355727 64) ?x1562367)))
 (let ((?x1562353 ((_ extract 135 128) ?x490286)))
 (let (($x1342825 (= (_ bv0 8) ?x1562353)))
 (let ((?x1562644 (ite $x1342825 (_ bv576460752303355726 64) ?x1562348)))
 (let ((?x1562444 ((_ extract 143 136) ?x490286)))
 (let (($x1342819 (= (_ bv0 8) ?x1562444)))
 (let ((?x1561836 (ite $x1342819 (_ bv576460752303355725 64) ?x1562644)))
 (let ((?x1562016 ((_ extract 151 144) ?x490286)))
 (let (($x1342818 (= (_ bv0 8) ?x1562016)))
 (let ((?x1562686 (ite $x1342818 (_ bv576460752303355724 64) ?x1561836)))
 (let ((?x1562401 ((_ extract 159 152) ?x490286)))
 (let (($x1342815 (= (_ bv0 8) ?x1562401)))
 (let ((?x1562013 (ite $x1342815 (_ bv576460752303355723 64) ?x1562686)))
 (let ((?x1562066 ((_ extract 167 160) ?x490286)))
 (let (($x1342799 (= (_ bv0 8) ?x1562066)))
 (let ((?x1562681 (ite $x1342799 (_ bv576460752303355722 64) ?x1562013)))
 (let ((?x1562637 ((_ extract 175 168) ?x490286)))
 (let (($x1342795 (= (_ bv0 8) ?x1562637)))
 (let ((?x1562074 (ite $x1342795 (_ bv576460752303355721 64) ?x1562681)))
 (let ((?x1562653 ((_ extract 183 176) ?x490286)))
 (let (($x1342711 (= (_ bv0 8) ?x1562653)))
 (let ((?x1561925 (ite $x1342711 (_ bv576460752303355720 64) ?x1562074)))
 (let ((?x1562358 ((_ extract 191 184) ?x490286)))
 (let (($x1342655 (= (_ bv0 8) ?x1562358)))
 (let ((?x1561990 (ite $x1342655 (_ bv576460752303355719 64) ?x1561925)))
 (let ((?x1562006 ((_ extract 199 192) ?x490286)))
 (let (($x1342578 (= (_ bv0 8) ?x1562006)))
 (let ((?x1562056 (ite $x1342578 (_ bv576460752303355718 64) ?x1561990)))
 (let ((?x1562583 ((_ extract 207 200) ?x490286)))
 (let (($x1342145 (= (_ bv0 8) ?x1562583)))
 (let ((?x1561950 (ite $x1342145 (_ bv576460752303355717 64) ?x1562056)))
 (let ((?x1562092 ((_ extract 215 208) ?x490286)))
 (let (($x1292473 (= (_ bv0 8) ?x1562092)))
 (let ((?x1562343 (ite $x1292473 (_ bv576460752303355716 64) ?x1561950)))
 (let ((?x1562078 ((_ extract 223 216) ?x490286)))
 (let (($x1292052 (= (_ bv0 8) ?x1562078)))
 (let ((?x1562051 (ite $x1292052 (_ bv576460752303355715 64) ?x1562343)))
 (let ((?x1562676 ((_ extract 231 224) ?x490286)))
 (let (($x1286643 (= (_ bv0 8) ?x1562676)))
 (let ((?x1562035 (ite $x1286643 (_ bv576460752303355714 64) ?x1562051)))
 (let ((?x1562360 ((_ extract 239 232) ?x490286)))
 (let (($x519374 (= (_ bv0 8) ?x1562360)))
 (let ((?x1561993 (ite $x519374 (_ bv576460752303355713 64) ?x1562035)))
 (let ((?x526487 ((_ extract 247 240) ?x490286)))
 (let (($x517975 (= (_ bv0 8) ?x526487)))
 (let ((?x1562359 (ite $x517975 (_ bv576460752303355712 64) ?x1561993)))
 (let ((?x1562671 (bvsub ?x1562359 (_ bv576460752303355712 64))))
 (= ?x1562671 strlen_9893_64)))))))))))))))))))))))))))))))))))))))))))))))))))))))))))))))))))))))))))))))))))))))))))))))))))))))))))))))))))))))))))))))))))))))))))))))))))))))))))))))))))))))))))))))))))))))))))))))))))))))))))))))))))))))))))))))))))))))))))))))))))))))))
(minimize mem_7fffffffffef420_168_64)
(minimize mem_7fffffffffef030_294_64)
(maximize access_3240_32)
(minimize mem_7fffffffffef038_272_64)
(maximize strlen_842_64)
(minimize syscall_stub_newfstatat_119_64)
(minimize mem_2c_5075_264)
(minimize strlen_5076_64)
(minimize strlen_83_64)
(minimize access_2116_32)
(minimize strlen_8049_64)
(maximize mem_7fffffffffef420_168_64)
(minimize filesize_file_0_/proc/self/loginuid_88_64)
(maximize strlen_8049_64)
(maximize syscall_stub_newfstatat_119_64)
(maximize mem_7fffffffffeefc8_390_64)
(maximize access_2116_32)
(minimize syscall_stub_readlink_158_64)
(minimize mem_7fffffffffef740_6020_248)
(maximize strncmp_ret_86_32)
(maximize mem_7fffffffffef740_6020_248)
(minimize syscall_stub_newfstatat_187_64)
(minimize mem_7fffffffffeefa0_293_64)
(maximize syscall_stub_ioctl_94_32)
(minimize access_3240_32)
(maximize strlen_85_64)
(maximize mem_7fffffffffef038_272_64)
(maximize syscall_stub_readlink_158_64)
(minimize mem_7fffffffffeefa8_273_64)
(maximize mem_2c_5075_264)
(minimize strncmp_ret_86_32)
(maximize mem_7fffffffffeefa8_273_64)
(maximize strlen_83_64)
(maximize filesize_file_0_/proc/self/loginuid_88_64)
(minimize mem_7fffffffffef058_391_64)
(maximize args_1_8)
(maximize mem_7fffffffffef058_391_64)
(maximize mem_7fffffffffef030_294_64)
(minimize strlen_842_64)
(minimize strlen_9893_64)
(minimize mem_7fffffffffeefc8_390_64)
(maximize strlen_5076_64)
(maximize strncmp_ret_84_32)
(minimize strncmp_ret_84_32)
(maximize mem_7fffffffffeefa0_293_64)
(minimize strlen_85_64)
(maximize mem_7fffffffffef048_341_32)
(minimize syscall_stub_ioctl_94_32)
(check-sat)
(get-objectives)
